c :: WCTIME=8102.6
c :: command line :: ./optimal-finder cvc-add3-opt-bw3.cnf -greedy
c :: version :: 160
c :: reference filename :: cvc-add3-opt-bw3.cnf
c :: reference encoding :: 126
c i 4 7 3 6 13 16 12 15 22 25 21 24 0
c :: reference encoding :: variables :: 27 :: clauses :: 126
c Iteration: 1	 MinCls: 1152
c Iteration: 2	 MinCls: 167
c Iteration: 3	 MinCls: 76
c Iteration: 4	 MinCls: 62
c Iteration: 5	 MinCls: 61
c Iteration: 6	 MinCls: 61
c i 4 7 3 6 13 16 12 15 22 25 21 24 19 10 18 14 0
c aux 19 10 18 14
c :: optimal encoding :: variables :: 16 :: clauses :: 96
c :: optimal minimal encoding :: 61
p cnf 28 61
-14 -15 0
-14 10 0
-18 14 0
-18 12 0
-18 13 0
-18 16 0
-19 -18 0
6 -4 10 0
-6 4 -10 0
7 -6 -10 0
3 -6 -10 0
-14 19 18 0
6 -3 10 0
7 4 -10 0
-10 15 14 0
6 -7 10 0
3 4 -10 0
3 7 -10 0
3 -6 -4 -7 0
-10 -12 19 18 0
-10 -13 19 18 0
-13 -12 14 19 0
-10 -16 19 18 0
-16 -12 14 19 0
15 -12 19 18 0
7 -6 -4 -3 0
3 7 4 -6 0
-14 18 -16 -12 0
18 -14 -12 -13 0
-6 4 -7 -3 0
-16 -13 19 18 0
-14 18 -16 -13 0
-16 15 18 19 0
-3 6 -4 -7 0
-13 15 18 19 0
-19 12 16 14 0
-14 12 16 13 0
-19 16 13 14 0
-19 12 13 14 0
-19 12 -15 10 0
-19 16 -15 10 0
-19 13 -15 10 0
22 24 19 25 -21 0
25 21 19 -24 22 0
25 -24 -22 21 -19 0
25 -24 19 -22 -21 0
-10 -16 -12 -13 18 0
25 24 19 21 -22 0
25 22 24 21 -19 0
-21 24 19 -22 -25 0
-24 -22 19 21 -25 0
-21 22 19 -25 -24 0
22 24 19 21 -25 0
-21 22 24 -25 -19 0
25 -21 22 -24 -19 0
-21 -24 -22 -25 -19 0
-21 25 24 -22 -19 0
22 -24 21 -19 -25 0
24 -22 -19 21 -25 0
-16 15 14 -12 -13 0
10 12 16 13 -15 0
